SPARKNaCl/why3-cvc5/sparknacl-hashing-rfsb509.adb_248_54_overflow_check_1.smt2
;; produced by cvc5.drv ;;
(set-logic ALL)
(set-info :smt-lib-version 2.6)
;;; generated by SMT-LIB2 driver
;;; SMT-LIB2 driver: bit-vectors, common part
;;; SMT-LIB2: integer arithmetic
;; "pow2"
(declare-fun pow2 (Int) Int)

(declare-const two_power_size_minus_one Int)

;; "two_power_size_minus_one_val"
(assert (= two_power_size_minus_one (pow2 (- 8 1))))

;; "min"
(define-fun min ((x Int) (y Int)) Int
  (ite (<= x y) x y))

;; "max"
(define-fun max ((x Int) (y Int)) Int
  (ite (<= x y) y x))

;; "Min_r"
(assert (forall ((x Int) (y Int)) (=> (<= y x) (= (min x y) y))))

;; "Max_l"
(assert (forall ((x Int) (y Int)) (=> (<= y x) (= (max x y) x))))

;; "Min_comm"
(assert (forall ((x Int) (y Int)) (= (min x y) (min y x))))

;; "Max_comm"
(assert (forall ((x Int) (y Int)) (= (max x y) (max y x))))

;; "Min_assoc"
(assert
  (forall ((x Int) (y Int) (z Int)) (= (min (min x y) z) (min x (min y z)))))

;; "Max_assoc"
(assert
  (forall ((x Int) (y Int) (z Int)) (= (max (max x y) z) (max x (max y z)))))

(declare-const two_power_size_minus_one1 Int)

;; "two_power_size_minus_one_val"
(assert (= two_power_size_minus_one1 (pow2 (- 64 1))))

(declare-sort tinteger_32B 0)

;; "tinteger_32B'int"
(declare-fun tinteger_32Bqtint (tinteger_32B) Int)

;; "tinteger_32B'axiom"
(assert
  (forall ((i tinteger_32B))
    (and
      (<= (- 2147483648) (tinteger_32Bqtint i))
      (<= (tinteger_32Bqtint i) 2147483647))))

;; "in_range"
(define-fun in_range ((x Int)) Bool
  (and (<= (- 2147483648) x) (<= x 2147483647)))

;; "to_rep"
(define-fun to_rep ((x tinteger_32B)) Int
  (tinteger_32Bqtint x))

;; "of_rep"
(declare-fun of_rep (Int) tinteger_32B)

;; "inversion_axiom"
(assert
  (forall ((x tinteger_32B))
    (! (= (of_rep (to_rep x)) x) :pattern ((to_rep x)) )))

;; "range_axiom"
(assert
  (forall ((x tinteger_32B))
    (! (in_range (to_rep x)) :pattern ((to_rep x)) )))

;; "coerce_axiom"
(assert
  (forall ((x Int))
    (! (=> (in_range x) (= (to_rep (of_rep x)) x)) :pattern ((to_rep
                                                               (of_rep x))) )))

;; "in_range"
(define-fun in_range1 ((x Int)) Bool
  (and (<= 0 x) (<= x 2147483647)))

(declare-sort byte 0)

;; "to_rep"
(declare-fun to_rep1 (byte) (_ BitVec 8))

;; "of_rep"
(declare-fun of_rep1 ((_ BitVec 8)) byte)

;; "inversion_axiom"
(assert
  (forall ((x byte)) (! (= (of_rep1 (to_rep1 x)) x) :pattern ((to_rep1 x)) )))

;; "range_axiom"
(assert true)

;; "coerce_axiom"
(assert
  (forall ((x (_ BitVec 8)))
    (! (= (to_rep1 (of_rep1 x)) x) :pattern ((to_rep1 (of_rep1 x))) )))

(declare-sort map1 0)

;; "has_bounds"
(declare-fun has_bounds (map1
  Int
  Int) Bool)

;; "get"
(declare-fun get (map1
  Int) byte)

(declare-datatypes ((t 0))
  (((tqtmk (rec__first tinteger_32B)(rec__last tinteger_32B)))))

;; "dynamic_property"
(define-fun dynamic_property ((range_first Int) (range_last Int) (low Int) (high Int)) Bool
  (and
    (in_range low)
    (and
      (in_range high)
      (=> (<= low high) (and (in_range1 low) (in_range1 high))))))

(declare-datatypes ((us_t 0))
  (((us_tqtmk (elts map1)(rt t)))))

;; "first"
(define-fun first ((a us_t)) Int
  (to_rep (rec__first (rt a))))

;; "last"
(define-fun last ((a us_t)) Int
  (to_rep (rec__last (rt a))))

;; "length"
(define-fun length ((a us_t)) Int
  (ite (<= (first a) (last a)) (+ (- (last a) (first a)) 1) 0))

;; "well_formed"
(define-fun well_formed ((a us_t)) Bool
  (has_bounds
    (elts a)
    (to_rep (rec__first (rt a)))
    (to_rep (rec__last (rt a)))))

(declare-sort us_main_type 0)

(declare-datatypes ((us_split_fields 0))
  (((us_split_fieldsqtmk
    (rec__ada___sparknacl__aes__aes128_key us_main_type)))))

(declare-datatypes ((us_rep 0))
  (((us_repqtmk (us_split_fields1 us_split_fields)))))

(declare-sort us_main_type1 0)

(declare-datatypes ((us_split_fields2 0))
  (((us_split_fieldsqtmk1
    (rec__ada___sparknacl__aes__aes128_round_keys us_main_type1)))))

(declare-datatypes ((us_rep1 0))
  (((us_repqtmk1 (us_split_fields3 us_split_fields2)))))

(declare-sort map2 0)

;; "has_bounds"
(declare-fun has_bounds1 (map2
  Int
  Int) Bool)

;; "dynamic_invariant"
(define-fun dynamic_invariant ((temp___expr_371 map1) (temp___is_init_367 Bool) (temp___skip_constant_368 Bool) (temp___do_toplevel_369 Bool) (temp___do_typ_inv_370 Bool)) Bool
  (and
    (=>
      (= temp___is_init_367 true)
      (=>
        (= temp___do_toplevel_369 true)
        (= (bvand (to_rep1 (get temp___expr_371 63)) #xE0) #x00)))
    (has_bounds temp___expr_371 0 63)))

;; "in_range"
(define-fun in_range2 ((x Int)) Bool
  (and (<= 0 x) (<= x 47)))

(declare-const input us_t)

(declare-const key us_rep)

;; "key_expansion"
(declare-fun key_expansion (us_rep) us_rep1)

(declare-const round_keys us_rep1)

;; "dynamic_invariant"
(define-fun dynamic_invariant1 ((temp___expr_225 us_t) (temp___is_init_221 Bool) (temp___skip_constant_222 Bool) (temp___do_toplevel_223 Bool) (temp___do_typ_inv_224 Bool)) Bool
  (and
    (=>
      (not (= temp___skip_constant_222 true))
      (dynamic_property
        0
        2147483647
        (first temp___expr_225)
        (last temp___expr_225)))
    (well_formed temp___expr_225)))

;; "ada___ada___sparknacl__hashing__rfsb509__hash_local__hash__aggregate_def"
(declare-fun ada___ada___sparknacl__hashing__rfsb509__hash_local__hash__aggregate_def ((_ BitVec 8)) map1)

;; "key_expansion__post_axiom"
(assert true)

;; Goal "def'vc"
;; File "sparknacl-hashing-rfsb509.adb", line 68, characters 0-0
(assert
  (not
  (forall ((output map1) (block map2) (bytes_remaining Int) (block_index Int))
    (=>
      (has_bounds output 0 31)
      (=>
        (dynamic_invariant1 input true false true true)
        (=>
          (= (key_expansion key) round_keys)
          (forall ((temp___956 map1))
            (=>
              (and
                (and
                  (has_bounds temp___956 0 63)
                  (forall ((temp___955 Int))
                    (! (=>
                         (and (<= 0 temp___955) (<= temp___955 63))
                         (= (to_rep1 (get temp___956 temp___955)) #x00)) :pattern (
                    (get
                      temp___956
                      temp___955)) )))
                (= temp___956 (ada___ada___sparknacl__hashing__rfsb509__hash_local__hash__aggregate_def
                                #x00)))
              (=>
                (= (bvand (to_rep1 (get temp___956 63)) #xE0) #x00)
                (=>
                  (= (bvand (to_rep1 (get temp___956 63)) #xE0) #x00)
                  (forall ((hash map1))
                    (=>
                      (= hash temp___956)
                      (=>
                        (dynamic_invariant hash true false true true)
                        (=>
                          (has_bounds1 block 0 47)
                          (=>
                            (in_range2 bytes_remaining)
                            (=>
                              (in_range2 block_index)
                              (forall ((hash1 map1) (bytes_remaining1 Int))
                                (=>
                                  (and
                                    (<= bytes_remaining1 (length input))
                                    (and
                                      (dynamic_invariant
                                        hash1
                                        true
                                        true
                                        true
                                        true)
                                      (in_range2 bytes_remaining1)))
                                  (forall ((block_index1 Int))
                                    (=>
                                      (= block_index1 (+ 0 bytes_remaining1))
                                      (forall ((spark__branch Bool))
                                        (=>
                                          (= spark__branch (ite (< 0 bytes_remaining1)
                                                             true
                                                             false))
                                          (=>
                                            (= spark__branch true)
                                            (let ((o (- (last input) bytes_remaining1)))
                                              (=>
                                                (in_range o)
                                                (<= (- 2147483648) (+ o 1)))))))))))))))))))))))))))

(check-sat)
